     Program PWSCF v.7.1 starts on 30Jul2022 at 16:25:42

     Waiting for input...
     Reading input from standard input

     Current dimensions of program PWSCF are:
     Max number of different atomic species (ntypx) = 10
     Max number of k-points (npk) =  40000
     Max angular momentum in pseudopotentials (lmaxx) =  4

     File ./tmp/Ca1H6.update deleted, as requested
     Message from routine setup:
     using ibrav=0 with symmetry is DISCOURAGED, use correct ibrav instead

     K-points division:     npool     =       4
     R & G space division:  proc/nbgrp/npool/nimage =       7
     Subspace diagonalization in iterative solution of the eigenvalue problem:
     a serial algorithm will be used

     Using Slab Decomposition

     bravais-lattice index     =            0
     lattice parameter (alat)  =       5.7296  a.u.
     unit-cell volume          =     144.7914 (a.u.)^3
     number of atoms/cell      =            7
     number of atomic types    =            2
     number of electrons       =        16.00
     number of Kohn-Sham states=           12
     kinetic-energy cutoff     =      60.0000  Ry
     charge density cutoff     =     720.0000  Ry
     scf convergence threshold =      1.0E-08
     mixing beta               =       0.7000
     number of iterations used =            8  plain     mixing
     energy convergence thresh.=      1.0E-07
     force convergence thresh. =      1.0E-05
     press convergence thresh. =      1.0E-02
     Exchange-correlation=  SLA  PW   PBX  PBC
                           (   1   4   3   4   0   0   0)
     nstep                     =         2000

     celldm(1)=   5.729564  celldm(2)=   0.000000  celldm(3)=   0.000000
     celldm(4)=   0.000000  celldm(5)=   0.000000  celldm(6)=   0.000000

     crystal axes: (cart. coord. in units of alat)
               a(1) = (  -0.577350   0.577350   0.577350 )
               a(2) = (   0.577350  -0.577350   0.577350 )
               a(3) = (   0.577350   0.577350  -0.577350 )

     reciprocal axes: (cart. coord. in units 2 pi/alat)
               b(1) = (  0.000000  0.866025  0.866025 )
               b(2) = (  0.866025 -0.000000  0.866025 )
               b(3) = (  0.866025  0.866025  0.000000 )

     PseudoPot. # 1 for Ca read from file:
     /public/home/mayuan/code/my_script/out/150.0/pp/ca_pbe_v1.uspp.F.UPF
     MD5 check sum: 403a4c14b9e4d4dfdc3024c9a3812218
     Pseudo is Ultrasoft + core correction, Zval = 10.0
     Generated by new atomic code, or converted to UPF format
     Using radial grid of  845 points,  6 beta functions with:
                l(1) =   0
                l(2) =   0
                l(3) =   1
                l(4) =   1
                l(5) =   2
                l(6) =   2
     Q(r) pseudized with  8 coefficients,  rinner =    1.500   1.500   1.500
                                                       1.500   1.500

     PseudoPot. # 2 for H  read from file:
     /public/home/mayuan/code/my_script/out/150.0/pp/h_pbe_v1.4.uspp.F.UPF
     MD5 check sum: 761ae9a214b05c3daf00ab9f6b793d6f
     Pseudo is Ultrasoft, Zval =  1.0
     Generated by new atomic code, or converted to UPF format
     Using radial grid of  615 points,  2 beta functions with:
                l(1) =   0
                l(2) =   0
     Q(r) pseudized with  8 coefficients,  rinner =    0.700

     atomic species   valence    mass     pseudopotential
        Ca            10.00    40.07800     Ca( 1.00)
        H              1.00     1.00794     H ( 1.00)

     48 Sym. Ops., with inversion, found

                                    s                        frac. trans.

      isym =  1     identity

 cryst.   s( 1) = (     1          0          0      )
                  (     0          1          0      )
                  (     0          0          1      )

 cart.    s( 1) = (  1.0000000  0.0000000  0.0000000 )
                  (  0.0000000  1.0000000  0.0000000 )
                  (  0.0000000  0.0000000  1.0000000 )

      isym =  2     180 deg rotation - cart. axis [0,0,1]

[...]

 cryst.   s( 9) = (    -1          0          0      )
                  (     1          1          1      )
                  (     0          0         -1      )

 cart.    s( 9) = (  0.0000000  0.0000000  1.0000000 )
                  (  0.0000000 -1.0000000  0.0000000 )
                  (  1.0000000 -0.0000000  0.0000000 )

[...]

 cryst.   s(10) = (     0          0         -1      )
                  (     0         -1          0      )
                  (    -1          0          0      )

 cart.    s(10) = (  0.0000000 -0.0000000 -1.0000000 )
                  (  0.0000000 -1.0000000  0.0000000 )
                  ( -1.0000000  0.0000000  0.0000000 )

[...]

      isym = 24     120 deg rotation - cart. axis [-1,-1,1]

[...]

      isym = 25     inversion

[...]

      isym = 26     inv. 180 deg rotation - cart. axis [0,0,1]

[...]

      isym = 48     inv. 120 deg rotation - cart. axis [-1,-1,1]

 cryst.   s(48) = (     1          1          1      )
                  (    -1          0          0      )
                  (     0          0         -1      )

 cart.    s(48) = ( -0.0000000 -0.0000000  1.0000000 )
                  ( -1.0000000  0.0000000  0.0000000 )
                  (  0.0000000  1.0000000  0.0000000 )

   Cartesian axes

     site n.     atom                  positions (alat units)
         1           Ca  tau(   1) = (   0.0000000   0.0000000   0.0000000  )
         2           H   tau(   2) = (   0.2886751  -0.0000000   0.5773503  )
         3           H   tau(   3) = (   0.2886751   0.5773503  -0.0000000  )
         4           H   tau(   4) = (   0.5773503   0.2886751   0.0000000  )
         5           H   tau(   5) = (   0.0000000   0.2886751   0.5773503  )
         6           H   tau(   6) = (  -0.0000000   0.5773503   0.2886751  )
         7           H   tau(   7) = (   0.5773503  -0.0000000   0.2886751  )

   Crystallographic axes

     site n.     atom                  positions (cryst. coord.)
         1           Ca  tau(   1) = (  0.0000000  0.0000000  0.0000000  )
         2           H   tau(   2) = (  0.5000000  0.7500000  0.2500000  )
         3           H   tau(   3) = (  0.5000000  0.2500000  0.7500000  )
         4           H   tau(   4) = (  0.2500000  0.5000000  0.7500000  )
         5           H   tau(   5) = (  0.7500000  0.5000000  0.2500000  )
         6           H   tau(   6) = (  0.7500000  0.2500000  0.5000000  )
         7           H   tau(   7) = (  0.2500000  0.7500000  0.5000000  )

     number of k points=   413  Gaussian smearing, width (Ry)=  0.0050
                       cart. coord. in units 2pi/alat
        k(    1) = (   0.0000000   0.0000000   0.0000000), wk =   0.0001447
        k(    2) = (   0.0360844   0.0360844   0.0000000), wk =   0.0017361
        k(    3) = (   0.0721688   0.0721688   0.0000000), wk =   0.0017361
        k(    4) = (   0.1082532   0.1082532   0.0000000), wk =   0.0017361
        k(    5) = (   0.1443376   0.1443376   0.0000000), wk =   0.0017361
        k(    6) = (   0.1804220   0.1804220   0.0000000), wk =   0.0017361
        k(    7) = (   0.2165064   0.2165064   0.0000000), wk =   0.0017361
        k(    8) = (   0.2525907   0.2525907   0.0000000), wk =   0.0017361
        k(    9) = (   0.2886751   0.2886751   0.0000000), wk =   0.0017361
        k(   10) = (   0.3247595   0.3247595   0.0000000), wk =   0.0017361
        k(   11) = (   0.3608439   0.3608439   0.0000000), wk =   0.0017361
        k(   12) = (   0.3969283   0.3969283   0.0000000), wk =   0.0017361
        k(   13) = (  -0.4330127  -0.4330127   0.0000000), wk =   0.0008681
        k(   14) = (   0.0721688   0.0360844   0.0360844), wk =   0.0034722
        k(   15) = (   0.1082532   0.0721688   0.0360844), wk =   0.0069444
        k(   16) = (   0.1443376   0.1082532   0.0360844), wk =   0.0069444
        k(   17) = (   0.1804220   0.1443376   0.0360844), wk =   0.0069444
        k(   18) = (   0.2165064   0.1804220   0.0360844), wk =   0.0069444
        k(   19) = (   0.2525907   0.2165064   0.0360844), wk =   0.0069444
        k(   20) = (   0.2886751   0.2525907   0.0360844), wk =   0.0069444
        k(   21) = (   0.3247595   0.2886751   0.0360844), wk =   0.0069444
        k(   22) = (   0.3608439   0.3247595   0.0360844), wk =   0.0069444
        k(   23) = (   0.3969283   0.3608439   0.0360844), wk =   0.0069444
        k(   24) = (   0.4330127   0.3969283   0.0360844), wk =   0.0069444
        k(   25) = (   0.1443376   0.0721688   0.0721688), wk =   0.0034722
        k(   26) = (   0.1804220   0.1082532   0.0721688), wk =   0.0069444
        k(   27) = (   0.2165064   0.1443376   0.0721688), wk =   0.0069444
        k(   28) = (   0.2525907   0.1804220   0.0721688), wk =   0.0069444
        k(   29) = (   0.2886751   0.2165064   0.0721688), wk =   0.0069444
        k(   30) = (   0.3247595   0.2525907   0.0721688), wk =   0.0069444
        k(   31) = (   0.3608439   0.2886751   0.0721688), wk =   0.0069444
        k(   32) = (   0.3969283   0.3247595   0.0721688), wk =   0.0069444
        k(   33) = (   0.4330127   0.3608439   0.0721688), wk =   0.0069444
        k(   34) = (   0.4690971   0.3969283   0.0721688), wk =   0.0034722
        k(   35) = (   0.2165064   0.1082532   0.1082532), wk =   0.0034722
        k(   36) = (   0.2525907   0.1443376   0.1082532), wk =   0.0069444
        k(   37) = (   0.2886751   0.1804220   0.1082532), wk =   0.0069444
        k(   38) = (   0.3247595   0.2165064   0.1082532), wk =   0.0069444
        k(   39) = (   0.3608439   0.2525907   0.1082532), wk =   0.0069444
        k(   40) = (   0.3969283   0.2886751   0.1082532), wk =   0.0069444
        k(   41) = (   0.4330127   0.3247595   0.1082532), wk =   0.0069444
        k(   42) = (   0.4690971   0.3608439   0.1082532), wk =   0.0069444
        k(   43) = (   0.2886751   0.1443376   0.1443376), wk =   0.0034722
        k(   44) = (   0.3247595   0.1804220   0.1443376), wk =   0.0069444
        k(   45) = (   0.3608439   0.2165064   0.1443376), wk =   0.0069444
        k(   46) = (   0.3969283   0.2525907   0.1443376), wk =   0.0069444
        k(   47) = (   0.4330127   0.2886751   0.1443376), wk =   0.0069444
        k(   48) = (   0.4690971   0.3247595   0.1443376), wk =   0.0069444
        k(   49) = (   0.5051815   0.3608439   0.1443376), wk =   0.0034722
        k(   50) = (   0.3608439   0.1804220   0.1804220), wk =   0.0034722
        k(   51) = (   0.3969283   0.2165064   0.1804220), wk =   0.0069444
        k(   52) = (   0.4330127   0.2525907   0.1804220), wk =   0.0069444
        k(   53) = (   0.4690971   0.2886751   0.1804220), wk =   0.0069444
        k(   54) = (   0.5051815   0.3247595   0.1804220), wk =   0.0069444
        k(   55) = (   0.4330127   0.2165064   0.2165064), wk =   0.0034722
        k(   56) = (   0.4690971   0.2525907   0.2165064), wk =   0.0069444
        k(   57) = (   0.5051815   0.2886751   0.2165064), wk =   0.0069444
        k(   58) = (   0.5412659   0.3247595   0.2165064), wk =   0.0034722
        k(   59) = (   0.5051815   0.2525907   0.2525907), wk =   0.0034722
[...]
     atom    2 type  2   force =    -0.00000000    0.00000000   -0.00000000
     atom    3 type  2   force =     0.00000000   -0.00000000    0.00000000
     atom    4 type  2   force =    -0.00000000   -0.00000000   -0.00000000
     atom    5 type  2   force =     0.00000000    0.00000000   -0.00000000
     atom    6 type  2   force =     0.00000000    0.00000000    0.00000000
     atom    7 type  2   force =    -0.00000000    0.00000000   -0.00000000

     Total force =     0.000000     Total SCF correction =     0.000000

     Computing stress (Cartesian axis) and pressure

          total   stress  (Ry/bohr**3)                   (kbar)     P=     1494.82
   0.01016160   0.00000000   0.00000000         1494.82        0.00        0.00
   0.00000000   0.01016160   0.00000000            0.00     1494.82        0.00
   0.00000000   0.00000000   0.01016160            0.00        0.00     1494.82

     kinetic stress (kbar)  19934.91      0.00      0.00
                                0.00  19934.91      0.00
                                0.00      0.00  19934.91

     local   stress (kbar)   3937.16      0.00     -0.00
                                0.00   3937.16      0.00
                               -0.00      0.00   3937.16

     nonloc. stress (kbar)   4092.64      0.00      0.00
                               -0.00   4092.64      0.00
                                0.00      0.00   4092.64

     hartree stress (kbar)   3594.39     -0.00      0.00
                               -0.00   3594.39     -0.00
                                0.00     -0.00   3594.39

     exc-cor stress (kbar)  -3671.14      0.00     -0.00
                                0.00  -3671.14     -0.00
                               -0.00     -0.00  -3671.14

     corecor stress (kbar)  -1732.76      0.00      0.00
                                0.00  -1732.76      0.00
                                0.00      0.00  -1732.76

     ewald   stress (kbar) -24660.37     -0.00     -0.00
                               -0.00 -24660.37      0.00
                               -0.00      0.00 -24660.37

     hubbard stress (kbar)      0.00      0.00      0.00
                                0.00      0.00      0.00
                                0.00      0.00      0.00

     DFT-D   stress (kbar)      0.00      0.00      0.00
                                0.00      0.00      0.00
                                0.00      0.00      0.00

     XDM     stress (kbar)      0.00      0.00      0.00
                                0.00      0.00      0.00
                                0.00      0.00      0.00

     dft-nl  stress (kbar)      0.00      0.00      0.00
                                0.00      0.00      0.00
                                0.00      0.00      0.00

     TS-vdW  stress (kbar)      0.00      0.00      0.00
                                0.00      0.00      0.00
                                0.00      0.00      0.00

     MDB     stress (kbar)      0.00      0.00      0.00
                                0.00      0.00      0.00
                                0.00      0.00      0.00

     3D-RISM stress (kbar)      0.00      0.00      0.00
                                0.00      0.00      0.00
                                0.00      0.00      0.00

     BFGS Geometry Optimization
     Energy error            =      0.0E+00 Ry
     Gradient error          =      7.1E-32 Ry/Bohr
     Cell gradient error     =      5.2E+00 kbar

     number of scf cycles    =   1
     number of bfgs steps    =   0

     enthalpy           new  =     -79.8839360472 Ry

     new trust radius        =       0.0021174129 bohr
     new conv_thr            =       0.0000000100 Ry

     new unit-cell volume =    144.40960 a.u.^3 (    21.39930 Ang^3 )
     density =      3.57925 g/cm^3

CELL_PARAMETERS (angstrom)
  -1.748959802   1.748959802   1.748959802
   1.748959802  -1.748959802   1.748959802
   1.748959802   1.748959802  -1.748959802

ATOMIC_POSITIONS (crystal)
Ca            0.0000000000        0.0000000000        0.0000000000
H             0.5000000000        0.7500000000        0.2500000000
H             0.5000000000        0.2500000000        0.7500000000
H             0.2500000000        0.5000000000        0.7500000000
H             0.7500000000        0.5000000000        0.2500000000
H             0.7500000000        0.2500000000        0.5000000000
H             0.2500000000        0.7500000000        0.5000000000

     Writing config-only to output data dir ./tmp/Ca1H6.save/
     NEW-OLD atomic charge density approx. for the potential
     extrapolated charge   15.95771, renormalised to   16.00000

[...]

     Energy error            =      3.4E-06 Ry
     Gradient error          =      5.0E-32 Ry/Bohr
     Cell gradient error     =      7.9E+00 kbar

[...]

     enthalpy           old  =     -79.8839360472 Ry
     enthalpy           new  =     -79.8839326154 Ry

     CASE: enthalpy          _new > enthalpy          _old

[...]

     CASE: enthalpy          _new < enthalpy          _old

     small trust_radius: resetting bfgs history

     new trust radius        =       0.0000501611 bohr
     new conv_thr            =            1.0E-10 Ry

[...]

     Writing config-only to output data dir ./tmp/Ca1H6.save/
     NEW-OLD atomic charge density approx. for the potential
     extrapolated charge   15.99900, renormalised to   16.00000

[...]

     total energy              =     -81.35870303 Ry
     estimated scf accuracy    <       0.00000001 Ry

[...]

     Energy error            =      7.4E-09 Ry
     Gradient error          =      2.8E-32 Ry/Bohr
     Cell gradient error     =      2.8E-01 kbar

     number of scf cycles    =   4
     number of bfgs steps    =   2

     enthalpy           old  =     -79.8839387928 Ry
     enthalpy           new  =     -79.8839387854 Ry

     CASE: enthalpy          _new > enthalpy          _old

     new trust radius        =       0.0000126257 bohr

     trust_radius < trust_radius_min

     resetting bfgs history

     Message from routine bfgs:
     history already reset at previous step: stopping
     new conv_thr            =            1.0E-10 Ry

     new unit-cell volume =    144.63021 a.u.^3 (    21.43199 Ang^3 )
     density =      3.57379 g/cm^3

[...]

ATOMIC_POSITIONS (crystal)
Ca           -0.0000000000       -0.0000000000        0.0000000000
H             0.5000000000        0.7500000000        0.2500000000
H             0.5000000000        0.2500000000        0.7500000000
H             0.2500000000        0.5000000000        0.7500000000
H             0.7500000000        0.5000000000        0.2500000000
H             0.7500000000        0.2500000000        0.5000000000
H             0.2500000000        0.7500000000        0.5000000000

     Writing config-only to output data dir ./tmp/Ca1H6.save/
     NEW-OLD atomic charge density approx. for the potential

     Self-consistent Calculation

     iteration #  1     ecut=    60.00 Ry     beta= 0.70
     Davidson diagonalization with overlap

[...]

     Threshold (ethr) on eigenvalues was too large:
     Diagonalizing with lowered threshold

     Davidson diagonalization with overlap

     ethr =  1.08E-14,  avg # of iterations =  3.9

     End of self-consistent calculation

[...]

          k = 0.0000 0.0000 0.7942 (  1156 PWs)   bands (ev):

[...]

          k =-0.8663-0.8663-0.8663 (  1144 PWs)   bands (ev):

   -23.8174  -6.2567  -6.2567  -6.2567   3.2584   3.2584  13.1324  13.1324
    13.1324  22.3902  22.3902  22.3902

     occupation numbers
     1.0000   1.0000   1.0000   1.0000   1.0000   1.0000   1.0000   1.0000
     1.0000   0.0000   0.0000   0.0000

     the Fermi energy is    15.5383 ev

!    total energy              =     -81.35870303 Ry
     estimated scf accuracy    <          3.0E-12 Ry
     smearing contrib. (-TS)   =      -0.00004626 Ry
     internal energy E=F+TS    =     -81.35865677 Ry

     The total energy is F=E-TS. E is the sum of the following terms:
     one-electron contribution =      -1.80842946 Ry
     hartree contribution      =      10.60496232 Ry
     xc contribution           =     -17.31058762 Ry
     ewald contribution        =     -72.84460201 Ry

     convergence has been achieved in   1 iterations

     Forces acting on atoms (cartesian axes, Ry/au):

     atom    1 type  1   force =    -0.00000000    0.00000000    0.00000000
     atom    2 type  2   force =    -0.00000000   -0.00000000   -0.00000000
     atom    3 type  2   force =     0.00000000   -0.00000000    0.00000000
     atom    4 type  2   force =     0.00000000    0.00000000   -0.00000000
     atom    5 type  2   force =     0.00000000   -0.00000000   -0.00000000
     atom    6 type  2   force =    -0.00000000    0.00000000   -0.00000000
     atom    7 type  2   force =     0.00000000    0.00000000    0.00000000
     The non-local contrib.  to forces
     atom    1 type  1   force =     0.00000000   -0.00000000   -0.00000000
     atom    2 type  2   force =     0.00000000   -0.00000000    0.00000000
     atom    3 type  2   force =     0.00000000    0.00000000    0.00000000
     atom    4 type  2   force =    -0.00000000   -0.00000000   -0.00000000
     atom    5 type  2   force =    -0.00000000   -0.00000000   -0.00000000
     atom    6 type  2   force =    -0.00000000   -0.00000000   -0.00000000
     atom    7 type  2   force =     0.00000000    0.00000000    0.00000000
     The ionic contribution  to forces
     atom    1 type  1   force =    -0.00000000    0.00000000    0.00000000
     atom    2 type  2   force =     0.00000000   -0.00000000   -0.00000000
     atom    3 type  2   force =     0.00000000    0.00000000   -0.00000000
     atom    4 type  2   force =    -0.00000000   -0.00000000   -0.00000000
     atom    5 type  2   force =    -0.00000000   -0.00000000   -0.00000000
     atom    6 type  2   force =     0.00000000   -0.00000000    0.00000000
     atom    7 type  2   force =    -0.00000000   -0.00000000   -0.00000000
     The local contribution  to forces
     atom    1 type  1   force =     0.00000000    0.00000000    0.00000000
     atom    2 type  2   force =    -0.00000000    0.00000000   -0.00000000
     atom    3 type  2   force =     0.00000000    0.00000000    0.00000000
     atom    4 type  2   force =     0.00000000    0.00000000    0.00000000
     atom    5 type  2   force =    -0.00000000   -0.00000000   -0.00000000
     atom    6 type  2   force =     0.00000000    0.00000000   -0.00000000
     atom    7 type  2   force =     0.00000000    0.00000000    0.00000000
     The core correction contribution to forces
     atom    1 type  1   force =     0.00000000    0.00000000    0.00000000
     atom    2 type  2   force =     0.00000000    0.00000000    0.00000000
     atom    3 type  2   force =     0.00000000    0.00000000    0.00000000
     atom    4 type  2   force =     0.00000000    0.00000000    0.00000000
     atom    5 type  2   force =     0.00000000    0.00000000    0.00000000
     atom    6 type  2   force =     0.00000000    0.00000000    0.00000000
     atom    7 type  2   force =     0.00000000    0.00000000    0.00000000
     The Hubbard contrib.    to forces
     atom    1 type  1   force =     0.00000000    0.00000000    0.00000000
     atom    2 type  2   force =     0.00000000    0.00000000    0.00000000
     atom    3 type  2   force =     0.00000000    0.00000000    0.00000000
     atom    4 type  2   force =     0.00000000    0.00000000    0.00000000
     atom    5 type  2   force =     0.00000000    0.00000000    0.00000000
     atom    6 type  2   force =     0.00000000    0.00000000    0.00000000
     atom    7 type  2   force =     0.00000000    0.00000000    0.00000000
     The SCF correction term to forces
     atom    1 type  1   force =     0.00000000   -0.00000000   -0.00000000
     atom    2 type  2   force =    -0.00000000    0.00000000    0.00000000
     atom    3 type  2   force =     0.00000000    0.00000000   -0.00000000
     atom    4 type  2   force =     0.00000000    0.00000000    0.00000000
     atom    5 type  2   force =    -0.00000000   -0.00000000    0.00000000
     atom    6 type  2   force =    -0.00000000    0.00000000   -0.00000000
     atom    7 type  2   force =    -0.00000000   -0.00000000   -0.00000000

     Total force =     0.000000     Total SCF correction =     0.000000

     Computing stress (Cartesian axis) and pressure

          total   stress  (Ry/bohr**3)                   (kbar)     P=     1500.30
   0.01019881  -0.00000000  -0.00000000         1500.30       -0.00       -0.00
  -0.00000000   0.01019881  -0.00000000           -0.00     1500.30       -0.00
  -0.00000000  -0.00000000   0.01019881           -0.00       -0.00     1500.30

     kinetic stress (kbar)  19962.04      0.00      0.00
                                0.00  19962.04      0.00
                                0.00      0.00  19962.04

     local   stress (kbar)   3953.53     -0.00     -0.00
                               -0.00   3953.53      0.00
                               -0.00      0.00   3953.53

     nonloc. stress (kbar)   4097.00     -0.00      0.00
                               -0.00   4097.00      0.00
                                0.00      0.00   4097.00

     hartree stress (kbar)   3595.48      0.00      0.00
                                0.00   3595.48     -0.00
                                0.00     -0.00   3595.48

     exc-cor stress (kbar)  -3676.01      0.00      0.00
                                0.00  -3676.01      0.00
                                0.00      0.00  -3676.01

     corecor stress (kbar)  -1734.71      0.00     -0.00
                                0.00  -1734.71      0.00
                               -0.00      0.00  -1734.71

     ewald   stress (kbar) -24697.03     -0.00     -0.00
                               -0.00 -24697.03      0.00
                               -0.00      0.00 -24697.03

     hubbard stress (kbar)      0.00      0.00      0.00
                                0.00      0.00      0.00
                                0.00      0.00      0.00

     DFT-D   stress (kbar)      0.00      0.00      0.00
                                0.00      0.00      0.00
                                0.00      0.00      0.00

     XDM     stress (kbar)      0.00      0.00      0.00
                                0.00      0.00      0.00
                                0.00      0.00      0.00

     dft-nl  stress (kbar)      0.00      0.00      0.00
                                0.00      0.00      0.00
                                0.00      0.00      0.00

     TS-vdW  stress (kbar)      0.00      0.00      0.00
                                0.00      0.00      0.00
                                0.00      0.00      0.00

     MDB     stress (kbar)      0.00      0.00      0.00
                                0.00      0.00      0.00
                                0.00      0.00      0.00

     3D-RISM stress (kbar)      0.00      0.00      0.00
                                0.00      0.00      0.00
                                0.00      0.00      0.00

     Message from routine bfgs:
     history already reset at previous step: exiting
     Energy error            =      7.5E-09 Ry
     Gradient error          =      1.4E-31 Ry/Bohr
     Cell gradient error     =      3.0E-01 kbar

     bfgs failed after   5 scf cycles and   2 bfgs steps, convergence not achieved
     (criteria: energy <  1.0E-07 Ry, force <  1.0E-05 Ry/Bohr, cell <  1.0E-02 kbar)

     End of BFGS Geometry Optimization

     Final enthalpy           =     -79.8839387854 Ry

     File ./tmp/Ca1H6.bfgs deleted, as requested
Begin final coordinates
     new unit-cell volume =    144.63021 a.u.^3 (    21.43199 Ang^3 )
     density =      3.57379 g/cm^3

CELL_PARAMETERS (angstrom)
  -1.749849932   1.749849932   1.749849932
   1.749849932  -1.749849932   1.749849932
   1.749849932   1.749849932  -1.749849932

ATOMIC_POSITIONS (crystal)
Ca           -0.0000000000       -0.0000000000        0.0000000000
H             0.5000000000        0.7500000000        0.2500000000
H             0.5000000000        0.2500000000        0.7500000000
H             0.2500000000        0.5000000000        0.7500000000
H             0.7500000000        0.5000000000        0.2500000000
H             0.7500000000        0.2500000000        0.5000000000
H             0.2500000000        0.7500000000        0.5000000000
End final coordinates

     Writing config-only to output data dir ./tmp/Ca1H6.save/

     Writing all to output data dir ./tmp/Ca1H6.save/

     General routines

     Parallel routines

   This run was terminated on:  16:26: 9  30Jul2022

   JOB DONE.